JulietBench/Juliet_Based_Patch_Bench/linux/CWE-189-Numeric-Errors/CVE_2009_1385_ea30e11970a96cfe5e32c03a29332554573b4a10/Resulte1000_clean_rx_irq_SnippetNEQ.smt2
; benchmark generated from python API
(set-info :status unknown)
(declare-fun R () (_ BitVec 32))
(declare-fun rsi () (_ BitVec 64))
(declare-fun rdi () (_ BitVec 64))
(assert
 (let (($x130 (= (_ bv4294967295 32) R)))
 (let ((?x12 ((_ extract 7 0) rsi)))
 (let ((?x39 (bvand ?x12 (_ bv2 8))))
 (let (($x38 (= (_ bv0 8) ?x39)))
 (let (($x131 (and $x38 $x130)))
 (let (($x77 (and (distinct (_ bv0 8) ?x39) true)))
 (let ((?x6 ((_ extract 31 0) rdi)))
 (let (($x93 (bvsge (_ bv4 32) ?x6)))
 (let (($x134 (and $x93 $x77 $x130)))
 (let ((?x97 (bvadd (_ bv4294967292 32) ?x6)))
 (let (($x120 (= R ?x97)))
 (let (($x116 (bvslt (_ bv4 32) ?x6)))
 (let (($x133 (and $x116 $x77 $x120)))
 (let (($x135 (or $x133 $x134 $x131)))
 (let (($x138 (not $x135)))
 (let (($x125 (and $x77 $x120)))
 (let (($x132 (or $x125 $x131)))
 (let (($x137 (not $x132)))
 (let (($x139 (and $x137 $x138)))
 (let (($x136 (and $x132 $x135)))
 (let (($x140 (or $x136 $x139)))
 (not $x140)))))))))))))))))))))))
(check-sat)
